
Gurobi 10.0.0 (win64) logging started Thu Jun 13 16:57:52 2024

Set parameter LogFile to value "C:\Users\ealvarezq\Documents\GitHub\Comillas\Models\JointResearch\05. Models\06.Benchmarking\K.Investments_per_hour\RTS24_mod2_ByStages_nc400/openStarNet_RTS24_mod2_ByStages_nc400.log"
Set parameter Method to value 2
Set parameter MIPFocus to value 1
Set parameter Presolve to value 2
Set parameter RINS to value 100
Set parameter MIPGap to value 0.01
Set parameter Threads to value 9
Set parameter TimeLimit to value 259200
Set parameter IterationLimit to value 760000000
Gurobi Optimizer version 10.0.0 build v10.0.0rc2 (win64)

CPU model: Intel(R) Core(TM) i7-8700 CPU @ 3.20GHz, instruction set [SSE2|AVX|AVX2]
Thread count: 6 physical cores, 12 logical processors, using up to 9 threads

Optimize a model with 142003 rows, 95675 columns and 386624 nonzeros
Model fingerprint: 0x4b346895
Variable types: 95654 continuous, 21 integer (21 binary)
Coefficient statistics:
  Matrix range     [1e-03, 9e+02]
  Objective range  [1e+00, 1e+00]
  Bounds range     [3e-05, 3e+00]
  RHS range        [3e-05, 3e+00]
Presolve removed 84486 rows and 48367 columns
Presolve time: 0.60s
Presolved: 57517 rows, 47308 columns, 207579 nonzeros
Variable types: 47287 continuous, 21 integer (21 binary)
Root relaxation presolved: 57517 rows, 47308 columns, 207579 nonzeros

Root barrier log...

Ordering time: 0.01s

Barrier statistics:
 Dense cols : 21
 AA' NZ     : 3.854e+05
 Factor NZ  : 1.071e+06 (roughly 50 MB of memory)
 Factor Ops : 2.384e+07 (less than 1 second per iteration)
 Threads    : 8

                  Objective                Residual
Iter       Primal          Dual         Primal    Dual     Compl     Time
   0   6.67667475e+05 -6.65945711e+08  5.37e+00 3.99e+02  1.41e+04     1s
   1   1.03959649e+05 -1.73980537e+08  7.24e-01 9.99e-08  1.98e+03     1s
   2   4.19316437e+04 -9.42325201e+07  1.99e-01 4.04e-08  8.29e+02     1s
   3   2.07890084e+04 -8.95859004e+06  1.05e-02 1.33e-08  6.85e+01     1s
   4   1.64922345e+04 -4.25564782e+05  8.00e-04 2.68e-10  3.31e+00     1s
   5   8.39960595e+03 -1.17950656e+05  2.23e-05 1.39e-10  9.43e-01     1s
   6   2.91092438e+03 -2.97410979e+04  2.47e-06 3.14e-11  2.44e-01     1s
   7   8.64308713e+02 -7.13144470e+03  4.90e-07 6.76e-12  5.97e-02     1s
   8   3.07940700e+02 -1.46376212e+03  6.89e-08 1.70e-12  1.32e-02     1s
   9   1.79733127e+02 -4.56592969e+02  2.13e-08 1.08e-12  4.75e-03     1s
  10   1.20341247e+02 -1.55743060e+02  8.98e-09 2.05e-12  2.06e-03     1s
  11   9.42540485e+01 -4.00834395e+01  4.78e-09 9.30e-13  1.00e-03     1s
  12   7.55910930e+01 -1.52201630e+01  2.51e-09 1.14e-12  6.78e-04     1s
  13   6.65020826e+01  9.26206371e+00  1.49e-09 1.06e-12  4.27e-04     1s
  14   6.13417016e+01  2.63143333e+01  9.32e-10 7.65e-13  2.61e-04     1s
  15   5.99788869e+01  3.35311077e+01  7.94e-10 1.51e-12  1.97e-04     1s
  16   5.88398270e+01  3.81358450e+01  6.80e-10 2.47e-12  1.55e-04     1s
  17   5.62064713e+01  4.23937766e+01  4.23e-10 1.01e-12  1.03e-04     2s
  18   5.48948006e+01  4.38558905e+01  2.93e-10 1.26e-12  8.24e-05     2s
  19   5.46777046e+01  4.48391955e+01  2.73e-10 1.23e-12  7.34e-05     2s
  20   5.40652429e+01  4.68673982e+01  2.14e-10 2.22e-12  5.37e-05     2s
  21   5.35762799e+01  4.81349395e+01  1.65e-10 3.09e-12  4.06e-05     2s
  22   5.32545449e+01  4.86170988e+01  1.32e-10 3.52e-12  3.46e-05     2s
  23   5.28711910e+01  4.89495309e+01  9.28e-11 3.09e-12  2.93e-05     2s
  24   5.25860982e+01  4.97169363e+01  6.27e-11 2.43e-12  2.14e-05     2s
  25   5.24857795e+01  4.99484218e+01  5.20e-11 2.17e-12  1.89e-05     2s
  26   5.22925221e+01  5.05148360e+01  3.15e-11 2.30e-12  1.33e-05     2s
  27   5.21469596e+01  5.11054282e+01  1.85e-11 3.28e-12  7.78e-06     2s
  28   5.21123987e+01  5.12731331e+01  1.55e-11 1.36e-12  6.27e-06     2s
  29   5.20891603e+01  5.14475205e+01  1.50e-11 2.05e-12  4.79e-06     2s
  30   5.20622572e+01  5.15798461e+01  1.44e-11 1.72e-12  3.60e-06     2s
  31   5.20130475e+01  5.17009158e+01  1.39e-11 2.42e-12  2.33e-06     2s
  32   5.19954517e+01  5.18068566e+01  2.41e-11 9.32e-13  1.41e-06     2s
  33   5.19855614e+01  5.18409381e+01  2.45e-11 2.02e-12  1.08e-06     2s
  34   5.19810984e+01  5.18899145e+01  3.21e-11 1.92e-12  6.81e-07     2s
  35   5.19759275e+01  5.19074378e+01  7.81e-11 9.50e-13  5.11e-07     2s
  36   5.19728311e+01  5.19427181e+01  4.25e-11 1.18e-12  2.25e-07     2s
  37   5.19710045e+01  5.19609500e+01  5.97e-11 1.40e-12  7.51e-08     2s
  38   5.19703781e+01  5.19637483e+01  3.88e-11 6.19e-13  4.95e-08     2s
  39   5.19700042e+01  5.19657117e+01  2.65e-11 2.29e-12  3.20e-08     2s
  40   5.19698338e+01  5.19679385e+01  2.29e-11 1.38e-12  1.41e-08     2s
  41   5.19696212e+01  5.19686357e+01  2.69e-10 2.58e-12  7.36e-09     2s
  42   5.19695365e+01  5.19689535e+01  2.06e-10 6.58e-13  4.35e-09     2s
  43   5.19695159e+01  5.19689735e+01  1.74e-10 1.21e-12  4.05e-09     2s
  44   5.19695020e+01  5.19690248e+01  1.57e-10 1.43e-12  3.56e-09     2s
  45   5.19694103e+01  5.19691055e+01  1.84e-10 6.68e-13  2.28e-09     2s
  46   5.19694036e+01  5.19692303e+01  1.50e-10 1.29e-12  1.29e-09     2s
  47   5.19693992e+01  5.19692671e+01  1.15e-10 1.07e-12  9.86e-10     2s
  48   5.19693944e+01  5.19692876e+01  1.15e-10 1.51e-12  7.98e-10     2s
  49   5.19693917e+01  5.19692949e+01  1.02e-10 1.05e-12  7.23e-10     2s
  50   5.19693856e+01  5.19693214e+01  3.25e-10 1.60e-12  4.80e-10     2s
  51   5.19693765e+01  5.19693287e+01  2.14e-09 1.92e-12  3.57e-10     2s
  52   5.19693743e+01  5.19693582e+01  3.83e-09 1.89e-12  1.20e-10     2s
  53   5.19693735e+01  5.19693695e+01  2.67e-08 1.91e-12  2.97e-11     3s
  54   5.19693732e+01  5.19693697e+01  1.22e-08 2.68e-12  2.63e-11     3s
  55   5.19693730e+01  5.19693725e+01  9.33e-09 8.55e-13  4.05e-12     3s
  56   5.19693730e+01  5.19693728e+01  1.41e-09 1.45e-12  1.60e-12     3s

Barrier solved model in 56 iterations and 2.58 seconds (2.21 work units)
Optimal objective 5.19693730e+01


Root relaxation: objective 5.196937e+01, 7387 iterations, 2.34 seconds (2.07 work units)

    Nodes    |    Current Node    |     Objective Bounds      |     Work
 Expl Unexpl |  Obj  Depth IntInf | Incumbent    BestBd   Gap | It/Node Time

     0     0   51.96937    0   18          -   51.96937      -     -    4s
H    0     0                     102.6824107   51.96937  49.4%     -    5s
     0     0   53.12134    0   14  102.68241   53.12134  48.3%     -   13s
H    0     0                      98.8949696   53.12134  46.3%     -   14s
H    0     0                      92.1537320   53.15106  42.3%     -   15s
     0     0   53.15106    0   14   92.15373   53.15106  42.3%     -   15s
     0     0   53.15789    0   14   92.15373   53.15789  42.3%     -   16s
     0     0   53.16273    0   14   92.15373   53.16273  42.3%     -   16s
     0     0   53.18272    0   14   92.15373   53.18272  42.3%     -   16s
     0     0   53.19410    0   14   92.15373   53.19410  42.3%     -   17s
     0     0   53.20625    0   14   92.15373   53.20625  42.3%     -   18s
     0     0   53.21521    0   13   92.15373   53.21521  42.3%     -   19s
     0     0   53.22119    0   13   92.15373   53.22119  42.2%     -   19s
H    0     0                      88.3855313   53.22834  39.8%     -   20s
     0     0   53.22834    0   13   88.38553   53.22834  39.8%     -   20s
     0     0   53.23166    0   13   88.38553   53.23166  39.8%     -   20s
     0     0   53.23471    0   13   88.38553   53.23471  39.8%     -   21s
     0     0   53.23482    0   13   88.38553   53.23482  39.8%     -   21s
     0     0   53.37748    0   13   88.38553   53.37748  39.6%     -   24s
     0     0   53.48922    0   14   88.38553   53.48922  39.5%     -   28s
     0     0   53.49393    0   14   88.38553   53.49393  39.5%     -   29s
     0     0   53.49544    0   15   88.38553   53.49544  39.5%     -   29s
     0     0   53.49572    0   15   88.38553   53.49572  39.5%     -   29s
     0     0   53.49595    0   15   88.38553   53.49595  39.5%     -   30s
     0     0   53.49595    0   15   88.38553   53.49595  39.5%     -   30s
     0     0   53.61005    0   15   88.38553   53.61005  39.3%     -   33s
     0     0   53.62631    0   11   88.38553   53.62631  39.3%     -   34s
     0     0   53.63098    0   11   88.38553   53.63098  39.3%     -   35s
     0     0   53.63144    0   11   88.38553   53.63144  39.3%     -   35s
     0     0   53.63174    0   11   88.38553   53.63174  39.3%     -   35s
     0     0   53.63273    0   11   88.38553   53.63273  39.3%     -   36s
     0     0   53.63403    0   11   88.38553   53.63403  39.3%     -   36s
     0     0   53.63468    0   11   88.38553   53.63468  39.3%     -   36s
     0     0   53.63502    0   11   88.38553   53.63502  39.3%     -   36s
H    0     0                      80.9397900   53.63513  33.7%     -   37s
     0     0   53.63513    0   11   80.93979   53.63513  33.7%     -   37s
     0     0   53.65339    0   10   80.93979   53.65339  33.7%     -   39s
     0     0   53.65839    0   10   80.93979   53.65839  33.7%     -   40s
     0     0   53.65962    0   10   80.93979   53.65962  33.7%     -   40s
     0     0   53.65970    0   10   80.93979   53.65970  33.7%     -   40s
     0     0   53.65970    0   10   80.93979   53.65970  33.7%     -   45s
H    0     0                      71.1473642   53.65970  24.6%     -  101s
     0     2   53.65970    0   10   71.14736   53.65970  24.6%     -  102s
     1     4   53.81382    1   14   71.14736   53.66278  24.6%  3749  106s
     3     8   54.86786    2   17   71.14736   53.81385  24.4%  7330  112s
     7    16   55.06816    3   17   71.14736   54.87331  22.9%  5836  119s
    15    25   55.11535    4   16   71.14736   55.06816  22.6%  4759  126s
    24    34   55.24622    5   15   71.14736   55.13359  22.5%  3862  149s
    33    43   57.04749    6   15   71.14736   55.13359  22.5%  5335  159s
    42    50   57.10747    6   14   71.14736   55.13359  22.5%  5037  164s
    51    58   58.98939    7   14   71.14736   55.13359  22.5%  4762  176s
    61    64   60.11680    7   14   71.14736   55.13359  22.5%  4495  182s
    73    70   60.57570    8   13   71.14736   55.13359  22.5%  4086  191s
    83    74   62.70705    9   12   71.14736   55.13359  22.5%  4040  202s
    93    83   65.45313   10   11   71.14736   55.13359  22.5%  3928  267s
   102    90   68.49215   10   11   71.14736   55.13359  22.5%  3950  277s
   115    98   68.23636   11   10   71.14736   55.13359  22.5%  3805  286s
   125   104     cutoff   11        71.14736   55.13359  22.5%  3847  295s
   137   106     cutoff   12        71.14736   56.19516  21.0%  3759  307s
   151   117     cutoff    6        71.14736   56.19516  21.0%  3787  314s
   170   116   65.27424    7   11   71.14736   56.19516  21.0%  3587  322s
   193   115     cutoff    8        71.14736   56.19516  21.0%  3350  335s
   214   117     cutoff    8        71.14736   56.19516  21.0%  3240  347s
   230   127   64.89055    7   10   71.14736   56.19516  21.0%  3263  360s
   242   134   70.56538    8   12   71.14736   56.19516  21.0%  3338  373s
   257   135     cutoff    9        71.14736   56.19516  21.0%  3338  387s
   274   138   70.88642   11   10   71.14736   56.19516  21.0%  3360  404s
   295   144   71.08011   13    8   71.14736   56.61064  20.4%  3338  418s
   325   147   61.87588    5    9   71.14736   56.61064  20.4%  3230  435s
   358   157     cutoff    8        71.14736   56.61064  20.4%  3186  451s
   382   163   64.47567    7   10   71.14736   56.61064  20.4%  3137  468s
   416   173   68.53372    9   11   71.14736   56.61064  20.4%  3065  482s
   440   165     cutoff   11        71.14736   56.61064  20.4%  3041  498s
   476   166   65.53136   11   10   71.14736   56.61064  20.4%  2966  517s
   501   173   68.14369   12    9   71.14736   56.61064  20.4%  2985  535s
H  511   173                      71.0761684   56.61064  20.4%  2970  535s
   532   191   70.45940   15    6   71.07617   60.28179  15.2%  2950  553s
   568   194   69.02436    7   13   71.07617   60.28179  15.2%  2922  575s
   613   203   63.03768    7   14   71.07617   60.28179  15.2%  2860  595s
   648   202   64.30346    8   12   71.07617   60.28179  15.2%  2860  616s
   691   211   70.93824    8   13   71.07617   60.28179  15.2%  2816  637s
   726   208     cutoff   11        71.07617   60.28179  15.2%  2810  661s
   771   221   68.73167   10   10   71.07617   60.28179  15.2%  2803  685s
   816   230     cutoff   11        71.07617   62.29382  12.4%  2788  708s
   881   231   70.64055   12    8   71.07617   63.23828  11.0%  2722  737s
   916   236   68.60043   11   10   71.07617   63.23828  11.0%  2712  763s
   975   243   70.88446   12    9   71.07617   63.53410  10.6%  2678  789s
  1038   252     cutoff    9        71.07617   63.96591  10.0%  2635  816s
  1113   245     cutoff   11        71.07617   64.34218  9.47%  2581  845s
  1199   248   69.58225    8    9   71.07617   64.34218  9.47%  2524 1384s
H 1200   248                      71.0079175   64.34218  9.39%  2522 1384s
  1220   251   70.95887   10   10   71.00792   64.54615  9.10%  2550 1415s
  1300   256     cutoff   11        71.00792   64.77371  8.78%  2514 1752s
  1347   261   70.20706    5    8   71.00792   64.89016  8.62%  2505 1808s
  1374   271   69.83029   10   10   71.00792   64.90264  8.60%  2500 1845s
  1492   285   70.07908   11   10   71.00792   65.45613  7.82%  2434 2069s
  1591   299   69.06274    9    7   71.00792   65.45613  7.82%  2364 2437s
  1730   313   70.99246   14    7   71.00792   65.98675  7.07%  2276 2488s
  1887   317   70.09066   14    7   71.00792   66.25090  6.70%  2231 2563s
  1929   301     cutoff   16        71.00792   66.38243  6.51%  2228 2618s
  2105   293     cutoff   14        71.00792   66.77599  5.96%  2177 2676s
  2291   306     cutoff   19        71.00792   67.09754  5.51%  2134 2775s
  2390   290     cutoff   11        71.00792   67.42127  5.05%  2112 3126s
  2550   253     cutoff   15        71.00792   67.62428  4.77%  2084 3196s
  2813   195   68.77559   11    9   71.00792   68.04075  4.18%  2023 3264s
  3068    83   70.87052   10   11   71.00792   68.61527  3.37%  1970 3360s
  3337     0     cutoff   14        71.00792   69.26273  2.46%  1914 3389s

Cutting planes:
  Gomory: 1
  Implied bound: 388
  MIR: 1911
  Relax-and-lift: 383

Explored 3467 nodes (6575091 simplex iterations) in 3390.02 seconds (6400.32 work units)
Thread count was 9 (of 12 available processors)

Solution count 8: 71.0079 71.0762 71.1474 ... 102.682

Optimal solution found (tolerance 1.00e-02)
Best objective 7.100791746761e+01, best bound 7.100791746761e+01, gap 0.0000%

Gurobi 10.0.0 (win64) logging started Thu Jun 13 17:56:17 2024

Set parameter LogFile to value "C:\Users\ealvarezq\Documents\GitHub\Comillas\Models\JointResearch\05. Models\06.Benchmarking\K.Investments_per_hour\RTS24_mod2_ByStages_nc400/openStarNet_RTS24_mod2_ByStages_nc400.log"
Set parameter Method to value 2
Set parameter MIPFocus to value 1
Set parameter Presolve to value 2
Set parameter RINS to value 100
Set parameter MIPGap to value 0.01
Set parameter Threads to value 9
Set parameter TimeLimit to value 259200
Set parameter IterationLimit to value 760000000
Gurobi Optimizer version 10.0.0 build v10.0.0rc2 (win64)

CPU model: Intel(R) Core(TM) i7-8700 CPU @ 3.20GHz, instruction set [SSE2|AVX|AVX2]
Thread count: 6 physical cores, 12 logical processors, using up to 9 threads

Optimize a model with 142003 rows, 95654 columns and 353003 nonzeros
Model fingerprint: 0xaa873c7c
Coefficient statistics:
  Matrix range     [1e-03, 9e+02]
  Objective range  [1e+00, 1e+00]
  Bounds range     [3e-05, 3e+00]
  RHS range        [3e-05, 2e+01]
Presolve removed 119608 rows and 55347 columns
Presolve time: 0.18s
Presolved: 22395 rows, 41047 columns, 101067 nonzeros

Ordering time: 0.00s

Barrier statistics:
 AA' NZ     : 5.858e+04
 Factor NZ  : 2.212e+05 (roughly 22 MB of memory)
 Factor Ops : 3.239e+06 (less than 1 second per iteration)
 Threads    : 9

                  Objective                Residual
Iter       Primal          Dual         Primal    Dual     Compl     Time
   0   6.90983713e+06 -5.20698149e+08  5.23e+01 5.50e+02  1.24e+05     0s
   1   4.23704836e+05 -3.89268331e+08  2.96e+00 1.46e-11  1.14e+04     0s
   2   4.98366179e+04 -8.06801682e+07  2.86e-01 1.64e-11  1.46e+03     0s
   3   2.54695452e+04 -1.61008214e+07  4.22e-02 1.82e-11  2.46e+02     0s
   4   1.96259600e+04 -3.59758301e+06  3.46e-03 1.05e-11  5.09e+01     0s
   5   1.57914382e+04 -7.32279022e+05  2.49e-05 2.18e-11  1.04e+01     0s
   6   1.05137708e+04 -1.34477393e+05  3.51e-09 4.55e-12  2.01e+00     0s
   7   4.37388619e+03 -2.90630493e+04  1.88e-10 3.64e-12  4.64e-01     0s
   8   1.62754108e+03 -6.40553960e+03  4.77e-11 2.68e-12  1.12e-01     0s
   9   3.03475965e+02 -1.78120381e+03  3.95e-12 2.39e-12  2.89e-02     0s
  10   1.61486095e+02 -4.46994086e+02  3.01e-12 2.46e-12  8.45e-03     0s
  11   1.24469679e+02 -6.87812710e+01  2.17e-12 1.87e-12  2.68e-03     0s
  12   9.77457471e+01  8.71746238e+00  8.23e-12 2.99e-12  1.24e-03     0s
  13   8.35447564e+01  4.66360541e+01  6.27e-12 2.13e-12  5.13e-04     0s
  14   7.66533184e+01  5.93973073e+01  2.30e-11 1.53e-12  2.40e-04     0s
  15   7.36827744e+01  6.60338938e+01  6.04e-11 1.23e-12  1.06e-04     0s
  16   7.18695744e+01  6.99748528e+01  9.30e-11 2.77e-12  2.63e-05     0s
  17   7.13232187e+01  7.06581626e+01  4.74e-11 2.17e-12  9.23e-06     0s
  18   7.10938997e+01  7.09371939e+01  1.58e-10 5.68e-12  2.18e-06     0s
  19   7.10156352e+01  7.10001764e+01  3.12e-10 4.56e-12  2.15e-07     0s
  20   7.10083741e+01  7.10074994e+01  1.59e-09 1.79e-12  1.21e-08     0s
  21   7.10079823e+01  7.10079115e+01  6.40e-10 3.53e-12  9.84e-10     0s
  22   7.10079176e+01  7.10079172e+01  3.04e-10 4.02e-12  4.56e-12     0s
  23   7.10079175e+01  7.10079175e+01  2.18e-11 5.46e-12  9.64e-18     0s

Barrier solved model in 23 iterations and 0.50 seconds (0.48 work units)
Optimal objective 7.10079175e+01

Crossover log...

    4626 DPushes remaining with DInf 0.0000000e+00                 1s
       0 DPushes remaining with DInf 0.0000000e+00                 1s

    1247 PPushes remaining with PInf 0.0000000e+00                 1s
       0 PPushes remaining with PInf 0.0000000e+00                 1s

  Push phase complete: Pinf 0.0000000e+00, Dinf 2.4934435e-13      1s

Iteration    Objective       Primal Inf.    Dual Inf.      Time
    1388    7.1007917e+01   0.000000e+00   0.000000e+00      1s

Use crossover to convert LP symmetric solution to basic solution...
Crossover log...

       0 DPushes remaining with DInf 0.0000000e+00                 1s

     698 PPushes remaining with PInf 0.0000000e+00                 1s
       0 PPushes remaining with PInf 0.0000000e+00                 1s

  Push phase complete: Pinf 0.0000000e+00, Dinf 2.4343886e-13      1s

Iteration    Objective       Primal Inf.    Dual Inf.      Time
    2352    7.1007917e+01   0.000000e+00   0.000000e+00      1s

Solved in 2352 iterations and 0.76 seconds (0.64 work units)
Optimal objective  7.100791747e+01
